p cnf 12 26
4 7 11 16 22 29 0
8 12 17 23 30 38 0
-4 -8 0
-7 -12 0
-11 -17 0
-16 -23 0
-22 -30 0
-29 -38 0
-4 -12 0
-4 -23 0
-4 -30 0
-7 -30 0
-7 -38 0
-11 -23 0
-11 -30 0
-11 -38 0
-22 -38 0
-8 -7 0
-8 -16 0
-8 -22 0
-12 -22 0
-12 -29 0
-17 -16 0
-17 -22 0
-17 -29 0
-30 -29 0
